Running for instance ./models/rc204.txt
Generating routes...
Execution time:  0.106419116667  minutes
Academic license - for non-commercial use only
Warning: constraint name "Cliente esta na rota" has a space
Optimize a model with 26 rows, 5000 columns and 56306 nonzeros
Variable types: 0 continuous, 5000 integer (0 binary)
Coefficient statistics:
  Matrix range     [1e+00, 1e+00]
  Objective range  [7e+01, 6e+02]
  Bounds range     [1e+00, 1e+00]
  RHS range        [1e+00, 2e+01]
Found heuristic solution: objective 1105.1799042
Presolve removed 0 rows and 499 columns
Presolve time: 0.04s
Presolved: 26 rows, 4501 columns, 51233 nonzeros
Variable types: 0 continuous, 4501 integer (4501 binary)

Root relaxation: objective 3.974955e+02, 72 iterations, 0.00 seconds

    Nodes    |    Current Node    |     Objective Bounds      |     Work
 Expl Unexpl |  Obj  Depth IntInf | Incumbent    BestBd   Gap | It/Node Time

     0     0  397.49554    0    9 1105.17990  397.49554  64.0%     -    0s
H    0     0                     464.6035443  397.49554  14.4%     -    0s
H    0     0                     414.4193616  397.49554  4.08%     -    0s
     0     0  402.48837    0   15  414.41936  402.48837  2.88%     -    0s

Cutting planes:
  Zero half: 1

Explored 1 nodes (92 simplex iterations) in 0.08 seconds
Thread count was 8 (of 8 available processors)

Solution count 3: 414.419 464.604 1105.18 

Optimal solution found (tolerance 1.00e-04)
Best objective 4.144193615895e+02, best bound 4.144193615895e+02, gap 0.0000%
11 12 9 13 10 14 17 16 2 6 7 5 3
15 16 8
24 23 21 25 18 19 22
Distance: 414.41936159
Execution time:  0.1136738  minutes
